54
76
54
413
355
438
505
128
306
421
694
1566
73
82
266
845
797
616
46
354
1830
32
151
108
153
421
24
133
190
295
3707
381
57
475
67
34
388
735
17
954
2615
53
69
713
1776
765
76
412
1836
61
149
1248
92
163
463
349
491
172
547
629
587
26
34
45
844
441
109
268
1020
1564
295
639
371
228
2490
138
25
198
40
646
16
106
80
704
1659
194
118
1746
827
403
17
80
792
337
326
1799
76
68
715
866
